files/upTests/_functions/funcSetLits/0002.eprime
language ESSENCE' 1.0

find f_AsReln_RelationAsSet_SetExplicitVarSize_tuple1:
        matrix indexed by [int(1..12)] of bool
find f_AsReln_RelationAsSet_SetExplicitVarSize_tuple2_tuple1:
        matrix indexed by [int(1..12)] of int(1..3)
find f_AsReln_RelationAsSet_SetExplicitVarSize_tuple2_tuple2_SetOccurrence:
        matrix indexed by [int(1..12), int(1, 2)] of bool
such that
    forAll v__0 : int(1..3)
        . (sum v__1 : int(1..12)
               . f_AsReln_RelationAsSet_SetExplicitVarSize_tuple1[v__1]
                 *
                 (v__0 = f_AsReln_RelationAsSet_SetExplicitVarSize_tuple2_tuple1[v__1]))
          =
          1,
    forAll v__0 : int(1..11)
        . f_AsReln_RelationAsSet_SetExplicitVarSize_tuple1[v__0]
          /\
          f_AsReln_RelationAsSet_SetExplicitVarSize_tuple1[v__0 + 1]
          ->
          f_AsReln_RelationAsSet_SetExplicitVarSize_tuple2_tuple1[v__0]
          <
          f_AsReln_RelationAsSet_SetExplicitVarSize_tuple2_tuple1[v__0 + 1]
          \/
          f_AsReln_RelationAsSet_SetExplicitVarSize_tuple2_tuple1[v__0]
          =
          f_AsReln_RelationAsSet_SetExplicitVarSize_tuple2_tuple1[v__0 + 1]
          /\
          flatten(f_AsReln_RelationAsSet_SetExplicitVarSize_tuple2_tuple2_SetOccurrence[v__0,
                                                                                        ..])
          <lex
          flatten(f_AsReln_RelationAsSet_SetExplicitVarSize_tuple2_tuple2_SetOccurrence[v__0
                                                                                        +
                                                                                        1,
                                                                                        ..]),
    forAll v__0 : int(1..11)
        . f_AsReln_RelationAsSet_SetExplicitVarSize_tuple1[v__0]
          <=
          f_AsReln_RelationAsSet_SetExplicitVarSize_tuple1[v__0 + 1],
    forAll v__0 : int(1..12)
        . f_AsReln_RelationAsSet_SetExplicitVarSize_tuple1[v__0]
          ->
          (forAll v__1 : int(1..12)
               . f_AsReln_RelationAsSet_SetExplicitVarSize_tuple2_tuple1[v__1]
                 =
                 f_AsReln_RelationAsSet_SetExplicitVarSize_tuple2_tuple1[v__0]
                 /\
                 f_AsReln_RelationAsSet_SetExplicitVarSize_tuple1[v__1]
                 ->
                 (3 = f_AsReln_RelationAsSet_SetExplicitVarSize_tuple2_tuple1[v__0]
                  ->
                  (forAll v__2 : int(1, 2)
                       . f_AsReln_RelationAsSet_SetExplicitVarSize_tuple2_tuple2_SetOccurrence[v__1,
                                                                                               v__2]
                         ->
                         false))
                 /\
                 (2 = f_AsReln_RelationAsSet_SetExplicitVarSize_tuple2_tuple1[v__0]
                  ->
                  (exists v__2 : int(1, 2)
                       . f_AsReln_RelationAsSet_SetExplicitVarSize_tuple2_tuple2_SetOccurrence[v__1,
                                                                                               v__2]
                         /\
                         v__2 = 1)
                  /\
                  (forAll v__2 : int(1, 2)
                       . f_AsReln_RelationAsSet_SetExplicitVarSize_tuple2_tuple2_SetOccurrence[v__1,
                                                                                               v__2]
                         ->
                         1 = v__2))
                 /\
                 (1 = f_AsReln_RelationAsSet_SetExplicitVarSize_tuple2_tuple1[v__0]
                  ->
                  (exists v__2 : int(1, 2)
                       . f_AsReln_RelationAsSet_SetExplicitVarSize_tuple2_tuple2_SetOccurrence[v__1,
                                                                                               v__2]
                         /\
                         v__2 = 2)
                  /\
                  (exists v__2 : int(1, 2)
                       . f_AsReln_RelationAsSet_SetExplicitVarSize_tuple2_tuple2_SetOccurrence[v__1,
                                                                                               v__2]
                         /\
                         v__2 = 1)
                  /\
                  (forAll v__2 : int(1, 2)
                       . f_AsReln_RelationAsSet_SetExplicitVarSize_tuple2_tuple2_SetOccurrence[v__1,
                                                                                               v__2]
                         ->
                         2 = v__2 \/ 1 = v__2)))
